# 73649
param k := 6;
param n := 50;
param s := 1;
set E :=  (0,14) (0,38) (0,41) (1,33) (1,43) (2,20) (3,5) (3,15) (4,12) (4,24) (5,14) (5,35) (6,7) (6,13) (6,35) (6,44) (6,45) (7,24) (7,28) (7,43) (8,48) (9,17) (9,36) (10,24) (10,32) (10,34) (10,48) (11,33) (12,21) (12,34) (13,22) (13,23) (13,26) (14,42) (15,29) (16,49) (17,39) (17,44) (18,31) (18,36) (19,23) (19,48) (20,37) (20,47) (21,31) (22,25) (25,34) (26,46) (27,37) (28,30) (29,42) (30,38) (31,49) (32,42) (34,46) (37,40) (37,49);